%%% static parameters %%%
timespan = 1;
initial_fruit_bushes = [40];
initial_foragers = [40];
ticks_to_flee = [100];
bush_growth_chance = [10];
rate_of_mutation = [5.0];
%%% dynamic parameters %%%
mean_strength_th = 0.2029912456770695;
mean_strength_w = 10;
mean_speed_th = 0.10951815300409673;
mean_speed_w = 2;
mean_intelligence_th = 0.8231245547406162;
mean_intelligence_w = 47;
murder_rate_th = 0.21212981031952183;
murder_rate_w = 68;
age_death_rate_th = 0.803766508324502;
age_death_rate_w = 22;
starvation_rate_th = 0.25286273485385014;
starvation_rate_w = 62;
mean_reactive_aggression_th = 0.9776180534799179;
mean_reactive_aggression_w = 1;
mean_proactive_aggression_th = 0.3910094076228131;
mean_proactive_aggression_w = 71;
